(set-logic QF_SLIA)
(declare-fun var0 () String)
(assert (str.in_re var0 (re.++ ((_ re.loop 15 974) (re.++ (re.union (str.to_re "sWy") (re.union (str.to_re "A.") (re.union (str.to_re "V>") (str.to_re "t")))) (re.++ (re.union (str.to_re "O") (re.union (str.to_re "D[") (re.union (str.to_re "Gt{") (str.to_re "]")))) (re.++ (re.union (str.to_re "b") (re.union (str.to_re "DT") (re.union (str.to_re "t,") (str.to_re "<")))) (re.union (str.to_re "=5") (re.union (str.to_re "=Qd") (re.union (str.to_re "?g") (str.to_re "eXk")))))))) (re.++ ((_ re.loop 19 446) (re.++ (re.union (str.to_re "Ffb") (re.union (str.to_re "'") (re.union (str.to_re "~") (str.to_re "8")))) (re.++ (re.union (str.to_re "d") (re.union (str.to_re "M") (re.union (str.to_re "`ld") (str.to_re "y")))) (re.++ (re.union (str.to_re "8?") (re.union (str.to_re "mG") (re.union (str.to_re "c&v") (str.to_re "ou")))) (re.union (str.to_re "n") (re.union (str.to_re "]") (re.union (str.to_re "o") (str.to_re "7")))))))) (re.++ ((_ re.loop 15 273) (re.++ (re.union (str.to_re "Vp@") (re.union (str.to_re "C") (re.union (str.to_re "=-$") (str.to_re "UV3")))) (re.++ (re.union (str.to_re "op)") (re.union (str.to_re ">") (re.union (str.to_re "DV.") (str.to_re "n;@")))) (re.++ (re.union (str.to_re "4") (re.union (str.to_re "6j") (re.union (str.to_re "y") (str.to_re "U-N")))) (re.union (str.to_re "^vt") (re.union (str.to_re "zR") (re.union (str.to_re "xvh") (str.to_re "~")))))))) ((_ re.loop 20 752) (re.++ (re.union (str.to_re "O*O") (re.union (str.to_re "L") (re.union (str.to_re "%=") (str.to_re "&+")))) (re.++ (re.union (str.to_re "mV.") (re.union (str.to_re "B") (re.union (str.to_re "QWA") (str.to_re "CYn")))) (re.++ (re.union (str.to_re "gf") (re.union (str.to_re "GDg") (re.union (str.to_re "lyM") (str.to_re "a")))) (re.union (str.to_re "\u0022u}") (re.union (str.to_re "=") (re.union (str.to_re "^") (str.to_re "hW")))))))))))))
(assert (not (str.in_re var0 (re.++ ((_ re.loop 0 495) (re.++ (re.union (str.to_re "o") (re.union (str.to_re "tkp") (re.union (str.to_re "b<") (str.to_re "]`")))) (re.++ (re.union (str.to_re "N}") (re.union (str.to_re "F5\\") (re.union (str.to_re "VcI") (str.to_re "ko:")))) (re.++ (re.union (str.to_re "u") (re.union (str.to_re ">") (re.union (str.to_re "+.") (str.to_re "t")))) (re.union (str.to_re "v") (re.union (str.to_re "p<G") (re.union (str.to_re "Ek") (str.to_re "t4k")))))))) (re.++ ((_ re.loop 14 909) (re.++ (re.union (str.to_re "Z") (re.union (str.to_re "hr") (re.union (str.to_re "TyU") (str.to_re "\\")))) (re.++ (re.union (str.to_re "PUU") (re.union (str.to_re "AE") (re.union (str.to_re "^>") (str.to_re "7xn")))) (re.++ (re.union (str.to_re "Vx") (re.union (str.to_re "r") (re.union (str.to_re "li4") (str.to_re "]OS")))) (re.union (str.to_re "C3") (re.union (str.to_re "!") (re.union (str.to_re "%l") (str.to_re "s(")))))))) (re.++ ((_ re.loop 16 232) (re.++ (re.union (str.to_re "L1K") (re.union (str.to_re "\\lL") (re.union (str.to_re "KQY") (str.to_re "lQZ")))) (re.++ (re.union (str.to_re "eF5") (re.union (str.to_re "bW") (re.union (str.to_re "XR") (str.to_re "y[")))) (re.++ (re.union (str.to_re "$;") (re.union (str.to_re "km") (re.union (str.to_re "A") (str.to_re "?")))) (re.union (str.to_re "6K3") (re.union (str.to_re "'o") (re.union (str.to_re "x") (str.to_re "d\u0022")))))))) ((_ re.loop 13 704) (re.++ (re.union (str.to_re "g") (re.union (str.to_re "7") (re.union (str.to_re "|q+") (str.to_re "Y]u")))) (re.++ (re.union (str.to_re "q") (re.union (str.to_re "7") (re.union (str.to_re "V") (str.to_re "`I=")))) (re.++ (re.union (str.to_re "XY") (re.union (str.to_re "W1") (re.union (str.to_re "s") (str.to_re "'")))) (re.union (str.to_re "Yp;") (re.union (str.to_re "Z#") (re.union (str.to_re ":b") (str.to_re "v"))))))))))))))
(assert (not (str.in_re var0 (re.++ (re.* re.allchar) (re.++ (re.union (str.to_re "<") (re.union (str.to_re ">") (re.union (str.to_re "'") (re.union (str.to_re "\u0022") (str.to_re "&"))))) (re.* re.allchar))))))
(assert (<= 50 (str.len var0)))
(check-sat)
(get-model)
